(set-info :smt-lib-version 2.6)
(set-logic QF_LIA)
(set-info :category "industrial")
(set-info :status sat)
(declare-fun x0 () Int)
(declare-fun x1 () Int)
(declare-fun x10 () Int)
(declare-fun x11 () Int)
(declare-fun x12 () Int)
(declare-fun x13 () Int)
(declare-fun x14 () Int)
(declare-fun x15 () Int)
(declare-fun x16 () Int)
(declare-fun x17 () Int)
(declare-fun x18 () Int)
(declare-fun x19 () Int)
(declare-fun x2 () Int)
(declare-fun x20 () Int)
(declare-fun x21 () Int)
(declare-fun x22 () Int)
(declare-fun x23 () Int)
(declare-fun x24 () Int)
(declare-fun x3 () Int)
(declare-fun x4 () Int)
(declare-fun x5 () Int)
(declare-fun x6 () Int)
(declare-fun x7 () Int)
(declare-fun x8 () Int)
(declare-fun x9 () Int)
(assert (let ((?v_7 (* 0 x0)) (?v_10 (* 1 x1)) (?v_0 (* 0 x15)) (?v_8 (* 0 x21)) (?v_1 (* 0 x24)) (?v_2 (* 0 x6)) (?v_18 (* 1 x11)) (?v_22 (* 1 x12)) (?v_44 (* 1 x16)) (?v_60 (* 1 x2)) (?v_6 (* 1 x3)) (?v_32 (* 1 x4)) (?v_27 (* 1 x9)) (?v_63 (* 2 x20)) (?v_17 (* 1 x0)) (?v_4 (* 1 x13)) (?v_57 (* 0 x14)) (?v_67 (* 2 x17)) (?v_54 (* 0 x22)) (?v_43 (* 0 x7)) (?v_5 (* 0 x8)) (?v_9 (* 0 x9)) (?v_62 (* 1 x10)) (?v_12 (* 0 x16)) (?v_30 (* 0 x18)) (?v_21 (* 0 x2)) (?v_14 (* 1 x20)) (?v_15 (* 1 x23)) (?v_31 (* 1 x24)) (?v_16 (* 1 x5)) (?v_38 (* 0 x19)) (?v_29 (* 0 x20)) (?v_26 (* 0 x5)) (?v_52 (* 1 x18)) (?v_23 (* 0 x13)) (?v_50 (* 0 x3)) (?v_24 (* 0 x17)) (?v_45 (* 0 x1)) (?v_49 (* 1 x22)) (?v_40 (* 1 x7)) (?v_36 (* 0 x10)) (?v_51 (* 1 x14)) (?v_37 (* 1 x21)) (?v_59 (* 0 x4)) (?v_48 (* 0 x12)) (?v_68 (* 1 x6)) (?v_58 (* 1 x15)) (?v_61 (* 1 x17)) (?v_66 (* 0 x23)) (?v_47 (* (- 1) x5)) (?v_3 (* (- 1) x12)) (?v_33 (* (- 1) x16)) (?v_25 (* (- 1) x21)) (?v_13 (* (- 1) x2)) (?v_41 (* (- 1) x23)) (?v_11 (* (- 1) x14)) (?v_64 (* (- 1) x1)) (?v_53 (* (- 1) x11)) (?v_20 (* (- 1) x22)) (?v_35 (* (- 1) x4)) (?v_19 (* (- 1) x15)) (?v_28 (* (- 1) x17)) (?v_42 (* (- 1) x24)) (?v_46 (* (- 1) x20)) (?v_34 (* (- 1) x3)) (?v_69 (* (- 2) x8)) (?v_70 (* (- 1) x13)) (?v_56 (* (- 1) x7)) (?v_39 (* (- 1) x9)) (?v_65 (* (- 1) x18)) (?v_55 (* (- 1) x0))) (and (<= (+ ?v_7 (+ ?v_10 (+ (* (- 1) x10) (+ ?v_0 (+ ?v_8 (+ ?v_47 (+ ?v_1 (+ ?v_2 (+ ?v_18 (+ ?v_22 (+ ?v_44 (+ ?v_60 (+ ?v_6 (+ ?v_32 (+ ?v_27 ?v_63))))))))))))))) 1) (<= (+ ?v_17 (+ ?v_3 (+ ?v_33 (+ ?v_25 (+ ?v_4 (+ ?v_13 (+ ?v_57 (+ ?v_0 (+ ?v_67 (+ ?v_54 (+ ?v_41 (+ ?v_1 (+ ?v_2 (+ ?v_43 (+ ?v_5 ?v_9))))))))))))))) 0) (<= (+ (* 0 x11) (+ ?v_62 (+ ?v_3 (+ ?v_4 (+ ?v_11 (+ ?v_12 (+ ?v_30 (+ ?v_21 (+ ?v_14 (+ ?v_5 (+ ?v_15 (+ ?v_31 (+ ?v_6 ?v_16))))))))))))) 1) (<= (+ ?v_7 (+ ?v_64 (+ ?v_53 (+ ?v_3 (+ ?v_38 (+ ?v_20 (+ ?v_35 (+ ?v_29 (+ ?v_8 (+ ?v_1 (+ ?v_6 (+ ?v_26 (+ ?v_5 (+ ?v_9 (+ (* 2 x14) ?v_52))))))))))))))) 0) (<= (+ ?v_7 (+ ?v_10 (+ ?v_3 (+ ?v_23 (+ ?v_11 (+ ?v_19 (+ ?v_28 (+ ?v_12 (+ ?v_13 (+ ?v_8 (+ ?v_14 (+ ?v_42 (+ ?v_50 (+ ?v_15 ?v_16)))))))))))))) (- 1)) (<= (+ ?v_17 (+ ?v_10 (+ ?v_18 (+ ?v_11 (+ ?v_19 (+ ?v_24 (+ ?v_46 (+ ?v_20 (+ (* (- 1) x8) (+ ?v_12 (+ ?v_21 (+ ?v_1 (+ ?v_9 (+ ?v_22 ?v_16)))))))))))))) 1) (<= (+ ?v_45 (+ ?v_23 (+ ?v_11 (+ ?v_0 (+ ?v_24 (+ ?v_25 (+ ?v_34 (+ ?v_12 (+ ?v_21 (+ ?v_49 (+ (* (- 3) x23) (+ ?v_1 (+ ?v_26 (+ ?v_2 (+ ?v_40 (+ ?v_5 ?v_27)))))))))))))))) 1) (<= (+ ?v_28 (+ ?v_20 (+ ?v_69 (+ ?v_36 (+ ?v_23 (+ ?v_29 (+ ?v_9 (+ ?v_18 (+ ?v_51 (+ ?v_30 (+ ?v_37 (+ ?v_31 (+ ?v_32 ?v_16))))))))))))) 0) (<= (+ ?v_10 (+ ?v_70 (+ ?v_33 (+ ?v_34 (+ ?v_35 (+ ?v_56 (+ ?v_39 (+ ?v_36 (+ ?v_24 (+ ?v_1 (+ ?v_5 (+ ?v_18 (+ (* (- 2) x18) (+ ?v_37 (* 3 x22))))))))))))))) 0) (<= (+ ?v_36 (+ ?v_12 (+ ?v_24 (+ ?v_18 (+ ?v_65 (+ ?v_38 (+ ?v_39 (+ ?v_21 (+ ?v_29 (+ ?v_37 (+ ?v_1 (+ ?v_59 (+ ?v_6 (+ ?v_16 (+ ?v_40 (* 1 x8)))))))))))))))) 1) (<= (+ (* (- 2) x4) (+ ?v_10 (+ ?v_41 (+ ?v_42 (+ ?v_34 (+ ?v_48 (+ ?v_23 (+ ?v_29 (+ ?v_26 (+ ?v_43 (+ ?v_9 (+ ?v_44 (+ ?v_30 ?v_68))))))))))))) 1) (<= (+ ?v_55 (+ ?v_45 (+ ?v_46 (+ ?v_47 (+ ?v_48 (+ ?v_23 (+ ?v_58 (+ ?v_12 (+ ?v_61 (+ ?v_8 (+ ?v_49 (+ ?v_1 (+ ?v_50 (+ ?v_5 (+ ?v_9 (+ ?v_51 ?v_52)))))))))))))))) 1) (<= (+ ?v_19 (+ ?v_17 (+ (* (- 2) x17) (+ ?v_53 (+ ?v_13 (+ ?v_42 (+ ?v_48 (+ ?v_29 (+ ?v_54 (+ ?v_4 (+ ?v_51 (+ ?v_37 (+ ?v_66 (+ ?v_5 (+ ?v_52 (+ ?v_40 (* 2 x6))))))))))))))))) 0) (<= (+ ?v_55 (+ ?v_46 (+ ?v_56 (+ ?v_18 (+ ?v_57 (+ ?v_58 (+ ?v_12 (+ ?v_30 (+ ?v_8 (+ ?v_54 (+ ?v_59 (+ ?v_26 (+ ?v_2 (+ ?v_60 ?v_31)))))))))))))) 0) (<= (+ ?v_7 (+ (* (- 2) x1) (+ (* (- 1) x19) (+ ?v_0 (+ ?v_61 (+ ?v_25 (+ ?v_20 (+ ?v_56 (+ ?v_59 (+ ?v_5 (+ ?v_62 (+ ?v_18 (+ ?v_63 (+ ?v_15 ?v_6)))))))))))))) 0) (<= (+ ?v_64 (+ ?v_53 (+ ?v_11 (+ ?v_33 (+ ?v_61 (+ ?v_46 (+ ?v_8 (+ ?v_54 (+ ?v_35 (+ ?v_2 (+ ?v_43 (+ ?v_62 (+ ?v_65 (+ ?v_6 (* 2 x8))))))))))))))) 0) (<= (+ ?v_55 (+ ?v_45 (+ ?v_33 (+ ?v_36 (+ ?v_24 (+ ?v_22 (+ ?v_4 (+ ?v_30 (+ ?v_29 (+ ?v_8 (+ ?v_60 (+ ?v_66 (+ ?v_50 (+ ?v_59 (+ ?v_2 (+ ?v_31 ?v_40)))))))))))))))) 0) (<= (+ ?v_55 (+ ?v_19 (+ ?v_10 (+ ?v_23 (+ ?v_8 (+ ?v_54 (+ ?v_26 (+ ?v_2 (+ ?v_9 (+ ?v_18 (+ ?v_22 (+ ?v_15 (+ ?v_32 (+ ?v_40 (* 2 x3))))))))))))))) 0) (<= (+ ?v_7 (+ ?v_35 (+ ?v_45 (+ ?v_0 (+ ?v_38 (+ ?v_18 (+ ?v_22 (+ ?v_51 (+ ?v_44 (+ ?v_67 (+ ?v_52 (+ ?v_14 (+ ?v_37 (+ ?v_15 (+ ?v_31 (+ ?v_6 ?v_68)))))))))))))))) 1) (<= (+ ?v_64 (+ ?v_69 (+ ?v_70 (+ ?v_11 (+ ?v_28 (+ ?v_36 (+ ?v_0 (+ ?v_22 (+ ?v_65 (+ ?v_47 (+ ?v_21 (+ ?v_37 (+ ?v_59 (+ ?v_2 (+ ?v_15 (+ ?v_31 (+ ?v_40 ?v_27))))))))))))))))) 0))))
(check-sat)
(exit)
